Solver command line: ['C:\\Program Files\\IBM\\ILOG\\CPLEX_Studio2211\\cplex\\bin\\x64_win64\\cplex.exe']


Welcome to IBM(R) ILOG(R) CPLEX(R) Interactive Optimizer 22.1.1.0
  with Simplex, Mixed Integer & Barrier Optimizers
5725-A06 5725-A29 5724-Y48 5724-Y49 5724-Y54 5724-Y55 5655-Y21
Copyright IBM Corp. 1988, 2022.  All Rights Reserved.

Type 'help' for a list of available commands.
Type 'help' followed by a command name for more
information on commands.

CPLEX> Logfile 'cplex.log' closed.
Logfile 'C:\Users\wangy\Documents\GitHub\re_optimization\result_site_specific\tmprdx664_1.cplex.log' open.
CPLEX> Problem 'C:\Users\wangy\Documents\GitHub\re_optimization\result_site_specific\tmp7gily76k.pyomo.lp' read.
Read time = 0.30 sec. (9.13 ticks)
CPLEX> Problem name         : C:\Users\wangy\Documents\GitHub\re_optimization\result_site_specific\tmp7gily76k.pyomo.lp
Objective sense      : Minimize
Variables            :   65769  [Nneg: 35068,  Free: 8792,  Binary: 9,
                                 Other: 21900]
Objective nonzeros   :      17
Linear constraints   :   87665  [Less: 46741,  Greater: 5,  Equal: 40919]
  Nonzeros           :  225064
  RHS nonzeros       :    3735

Variables            : Min LB: 0.000000         Max UB: 1.000000       
Objective nonzeros   : Min   : 1.000000         Max   : 1.000000       
Linear constraints   :
  Nonzeros           : Min   : 0.0009090323     Max   : 100000.0       
  RHS nonzeros       : Min   : 0.07400000       Max   : 100000.0       
CPLEX> Version identifier: 22.1.1.0 | 2022-11-27 | 9160aff4d
Tried aggregator 3 times.
MIP Presolve eliminated 52811 rows and 32369 columns.
Aggregator did 10268 substitutions.
Reduced MIP has 24586 rows, 23132 columns, and 73615 nonzeros.
Reduced MIP has 5 binaries, 0 generals, 0 SOSs, and 0 indicators.
Presolve time = 0.22 sec. (225.35 ticks)
Found incumbent of value 253855.022569 after 0.31 sec. (326.14 ticks)
Probing time = 0.00 sec. (1.31 ticks)
Tried aggregator 1 time.
Detecting symmetries...
Reduced MIP has 24586 rows, 23132 columns, and 73615 nonzeros.
Reduced MIP has 5 binaries, 0 generals, 0 SOSs, and 0 indicators.
Presolve time = 0.05 sec. (47.17 ticks)
Probing time = 0.02 sec. (1.20 ticks)
MIP emphasis: balance optimality and feasibility.
MIP search method: dynamic search.
Parallel mode: deterministic, using up to 16 threads.
Root relaxation solution time = 1.09 sec. (777.89 ticks)

        Nodes                                         Cuts/
   Node  Left     Objective  IInf  Best Integer    Best Bound    ItCnt     Gap

*     0+    0                       253855.0226    -6738.5875           102.65%
      0     0     5432.2729     1   253855.0226     5432.2729       56   97.86%
*     0+    0                         7037.0248     5432.2729            22.80%
*     0+    0                         5755.9846     5432.2729             5.62%
      0     0        cutoff           5755.9846                    827    0.00%
Elapsed time = 1.83 sec. (1682.10 ticks, tree = 0.01 MB, solutions = 3)

Root node processing (before b&c):
  Real time             =    1.84 sec. (1685.28 ticks)
Parallel b&c, 16 threads:
  Real time             =    0.00 sec. (0.00 ticks)
  Sync time (average)   =    0.00 sec.
  Wait time (average)   =    0.00 sec.
                          ------------
Total (root+branch&cut) =    1.84 sec. (1685.28 ticks)

Solution pool: 3 solutions saved.

MIP - Integer optimal solution:  Objective =  5.7559846308e+03
Solution time =    1.84 sec.  Iterations = 827  Nodes = 0
Deterministic time = 1685.47 ticks  (914.03 ticks/sec)

CPLEX> Incumbent solution written to file 'C:\Users\wangy\Documents\GitHub\re_optimization\result_site_specific\tmpkai0n2ry.cplex.sol'.
CPLEX> 
